unsat
(:cnf-encoding-aux-vars 35
 :elim-unconstrained    3
 :max-memory            18.92
 :memory                18.62
 :nlsat-arith-var       9
 :nlsat-atoms           88
 :nlsat-bool-var        44
 :nlsat-clauses         257
 :nlsat-conflicts       13
 :nlsat-decisions       30
 :nlsat-propagations    119
 :num-allocs            137816
 :rlimit-count          38834
 :solve-eqs-elim-vars   49
 :solve-eqs-steps       177
 :time                  0.02
 :total-time            0.03)
